num_wann        =  3
num_bands       =  3
num_iter        =  0
exclude_bands:1-2,6-48

begin projections
c=4.9920765,5.0000000,5.0000000:p
end projections

guiding_centres = true

wannier_plot = true
wannier_plot_list = 1-3
wannier_plot_supercell = 2 2 1

write_tb = true
write_rmn = true
write_hr = true
write_u_matrices = true

#restart = plot
#bands_plot = true
bands_num_points = 50
bands_plot_format = gnuplot
begin kpoint_path
G 0.00000  0.00000 0.0000 Y 0.00000  0.50000 0.0000
Y 0.00000  0.50000 0.0000 M 0.33333  0.33333 0.0000
M 0.33333  0.33333 0.0000 G 0.00000  0.00000 0.0000
end kpoint_path

begin unit_cell_cart
    10.0000000     0.0000000     0.0000000
     0.0000000    10.0000000     0.0000000
     0.0000000     0.0000000    10.0000000
end unit_cell_cart

begin atoms_cart
N        4.9920765     5.0000000     5.0000000
N        6.1054235     5.0000000     5.0000000
end atoms_cart

mp_grid =     1     1     1

begin kpoints
      0.000000000000      0.000000000000      0.000000000000
end kpoints
