num_wann        =  18
num_bands       =  18
num_iter        =   0
exclude_bands:1-12,31-48

begin projections
Pb:s,p
Ti:d
O:p
end projections

#wannier_plot = true
#wannier_plot_list = 1 2 3 4 5 6 7 8 9 10 11 12 13 14 15 16 17 18
#wannier_plot_supercell = 2 2 1

write_tb = true
write_rmn = true
write_hr = true
write_u_matrices = true

#restart = plot
#bands_plot = true
bands_num_points = 50
bands_plot_format = gnuplot
begin kpoint_path
G 0.00000  0.00000 0.0000 Y 0.00000  0.50000 0.0000
Y 0.00000  0.50000 0.0000 M 0.33333  0.33333 0.0000
M 0.33333  0.33333 0.0000 G 0.00000  0.00000 0.0000
end kpoint_path

begin unit_cell_cart
     3.8889559     0.0000000     0.0000000
     0.0000000     3.8889559     0.0000000
     0.0000000     0.0000000     3.8889559
end unit_cell_cart

begin atoms_cart
Ti       1.9444779     1.9444779     1.9444779
Pb       0.0000000     0.0000000     0.0000000
O        1.9444779     1.9444779     0.0000000
O        0.0000000     1.9444779     1.9444779
O        1.9444779     0.0000000     1.9444779
end atoms_cart

mp_grid =     6     6     6

begin kpoints
      0.000000000000      0.000000000000      0.000000000000
      0.166666666667      0.000000000000      0.000000000000
      0.333333333333      0.000000000000      0.000000000000
      0.500000000000      0.000000000000      0.000000000000
      0.166666666667      0.166666666667      0.000000000000
      0.333333333333      0.166666666667      0.000000000000
      0.500000000000      0.166666666667      0.000000000000
      0.333333333333      0.333333333333      0.000000000000
      0.500000000000      0.333333333333      0.000000000000
      0.500000000000      0.500000000000      0.000000000000
      0.166666666667      0.166666666667      0.166666666667
      0.333333333333      0.166666666667      0.166666666667
      0.500000000000      0.166666666667      0.166666666667
      0.333333333333      0.333333333333      0.166666666667
      0.500000000000      0.333333333333      0.166666666667
      0.500000000000      0.500000000000      0.166666666667
      0.333333333333      0.333333333333      0.333333333333
      0.500000000000      0.333333333333      0.333333333333
      0.500000000000      0.500000000000      0.333333333333
      0.500000000000      0.500000000000      0.500000000000
     -0.166666666667     -0.000000000000     -0.000000000000
      0.000000000000      0.166666666667      0.000000000000
     -0.000000000000     -0.166666666667     -0.000000000000
      0.000000000000      0.000000000000      0.166666666667
     -0.000000000000     -0.000000000000     -0.166666666667
     -0.333333333333     -0.000000000000     -0.000000000000
      0.000000000000      0.333333333333      0.000000000000
     -0.000000000000     -0.333333333333     -0.000000000000
      0.000000000000      0.000000000000      0.333333333333
     -0.000000000000     -0.000000000000     -0.333333333333
      0.000000000000      0.500000000000      0.000000000000
      0.000000000000      0.000000000000      0.500000000000
     -0.166666666667     -0.166666666667     -0.000000000000
      0.000000000000      0.166666666667      0.166666666667
     -0.000000000000     -0.166666666667     -0.166666666667
      0.166666666667      0.000000000000      0.166666666667
     -0.166666666667     -0.000000000000     -0.166666666667
     -0.166666666667      0.166666666667      0.000000000000
      0.166666666667     -0.166666666667     -0.000000000000
     -0.166666666667      0.000000000000      0.166666666667
      0.166666666667     -0.000000000000     -0.166666666667
     -0.000000000000     -0.166666666667      0.166666666667
      0.000000000000      0.166666666667     -0.166666666667
     -0.333333333333     -0.166666666667     -0.000000000000
      0.000000000000      0.333333333333      0.166666666667
     -0.000000000000     -0.333333333333     -0.166666666667
      0.166666666667      0.000000000000      0.333333333333
     -0.166666666667     -0.000000000000     -0.333333333333
     -0.166666666667      0.333333333333      0.000000000000
      0.166666666667     -0.333333333333     -0.000000000000
     -0.333333333333      0.000000000000      0.166666666667
      0.333333333333     -0.000000000000     -0.166666666667
     -0.000000000000      0.166666666667      0.333333333333
      0.000000000000     -0.166666666667     -0.333333333333
     -0.000000000000     -0.333333333333      0.166666666667
      0.000000000000      0.333333333333     -0.166666666667
     -0.166666666667     -0.000000000000      0.333333333333
      0.166666666667      0.000000000000     -0.333333333333
      0.333333333333     -0.000000000000      0.166666666667
     -0.333333333333      0.000000000000     -0.166666666667
      0.000000000000     -0.166666666667      0.333333333333
     -0.000000000000      0.166666666667     -0.333333333333
      0.333333333333     -0.166666666667     -0.000000000000
     -0.333333333333      0.166666666667      0.000000000000
      0.166666666667      0.333333333333     -0.000000000000
     -0.166666666667     -0.333333333333      0.000000000000
     -0.500000000000     -0.166666666667     -0.000000000000
      0.000000000000      0.500000000000      0.166666666667
     -0.000000000000     -0.500000000000     -0.166666666667
      0.166666666667      0.000000000000      0.500000000000
     -0.166666666667     -0.000000000000     -0.500000000000
     -0.166666666667      0.500000000000      0.000000000000
      0.166666666667     -0.500000000000     -0.000000000000
     -0.500000000000      0.000000000000      0.166666666667
      0.500000000000     -0.000000000000     -0.166666666667
     -0.000000000000      0.166666666667      0.500000000000
      0.000000000000     -0.166666666667     -0.500000000000
     -0.333333333333     -0.333333333333     -0.000000000000
      0.000000000000      0.333333333333      0.333333333333
     -0.000000000000     -0.333333333333     -0.333333333333
      0.333333333333      0.000000000000      0.333333333333
     -0.333333333333     -0.000000000000     -0.333333333333
     -0.333333333333      0.333333333333      0.000000000000
      0.333333333333     -0.333333333333     -0.000000000000
     -0.333333333333      0.000000000000      0.333333333333
      0.333333333333     -0.000000000000     -0.333333333333
     -0.000000000000     -0.333333333333      0.333333333333
      0.000000000000      0.333333333333     -0.333333333333
     -0.500000000000     -0.333333333333     -0.000000000000
      0.000000000000      0.500000000000      0.333333333333
     -0.000000000000     -0.500000000000     -0.333333333333
      0.333333333333      0.000000000000      0.500000000000
     -0.333333333333     -0.000000000000     -0.500000000000
     -0.333333333333      0.500000000000      0.000000000000
      0.333333333333     -0.500000000000     -0.000000000000
     -0.500000000000      0.000000000000      0.333333333333
      0.500000000000     -0.000000000000     -0.333333333333
     -0.000000000000      0.333333333333      0.500000000000
      0.000000000000     -0.333333333333     -0.500000000000
      0.000000000000      0.500000000000      0.500000000000
      0.500000000000      0.000000000000      0.500000000000
     -0.166666666667     -0.166666666667     -0.166666666667
     -0.166666666667      0.166666666667      0.166666666667
      0.166666666667     -0.166666666667     -0.166666666667
     -0.166666666667     -0.166666666667      0.166666666667
      0.166666666667      0.166666666667     -0.166666666667
      0.166666666667     -0.166666666667      0.166666666667
     -0.166666666667      0.166666666667     -0.166666666667
     -0.333333333333     -0.166666666667     -0.166666666667
      0.166666666667      0.333333333333      0.166666666667
     -0.166666666667     -0.333333333333     -0.166666666667
      0.166666666667      0.166666666667      0.333333333333
     -0.166666666667     -0.166666666667     -0.333333333333
     -0.166666666667      0.333333333333      0.166666666667
      0.166666666667     -0.333333333333     -0.166666666667
     -0.333333333333      0.166666666667      0.166666666667
      0.333333333333     -0.166666666667     -0.166666666667
     -0.166666666667      0.166666666667      0.333333333333
      0.166666666667     -0.166666666667     -0.333333333333
     -0.333333333333     -0.166666666667      0.166666666667
      0.333333333333      0.166666666667     -0.166666666667
     -0.166666666667     -0.333333333333      0.166666666667
      0.166666666667      0.333333333333     -0.166666666667
     -0.166666666667     -0.166666666667      0.333333333333
      0.166666666667      0.166666666667     -0.333333333333
      0.166666666667     -0.333333333333      0.166666666667
     -0.166666666667      0.333333333333     -0.166666666667
      0.333333333333     -0.166666666667      0.166666666667
     -0.333333333333      0.166666666667     -0.166666666667
      0.166666666667     -0.166666666667      0.333333333333
     -0.166666666667      0.166666666667     -0.333333333333
     -0.500000000000     -0.166666666667     -0.166666666667
      0.166666666667      0.500000000000      0.166666666667
     -0.166666666667     -0.500000000000     -0.166666666667
      0.166666666667      0.166666666667      0.500000000000
     -0.166666666667     -0.166666666667     -0.500000000000
     -0.166666666667      0.500000000000      0.166666666667
      0.166666666667     -0.500000000000     -0.166666666667
     -0.166666666667      0.166666666667      0.500000000000
      0.166666666667     -0.166666666667     -0.500000000000
     -0.500000000000     -0.166666666667      0.166666666667
      0.500000000000      0.166666666667     -0.166666666667
     -0.333333333333     -0.333333333333     -0.166666666667
      0.166666666667      0.333333333333      0.333333333333
     -0.166666666667     -0.333333333333     -0.333333333333
      0.333333333333      0.166666666667      0.333333333333
     -0.333333333333     -0.166666666667     -0.333333333333
     -0.333333333333      0.333333333333      0.166666666667
      0.333333333333     -0.333333333333     -0.166666666667
     -0.333333333333      0.166666666667      0.333333333333
      0.333333333333     -0.166666666667     -0.333333333333
     -0.166666666667      0.333333333333      0.333333333333
      0.166666666667     -0.333333333333     -0.333333333333
     -0.333333333333     -0.333333333333      0.166666666667
      0.333333333333      0.333333333333     -0.166666666667
     -0.166666666667     -0.333333333333      0.333333333333
      0.166666666667      0.333333333333     -0.333333333333
     -0.333333333333     -0.166666666667      0.333333333333
      0.333333333333      0.166666666667     -0.333333333333
      0.333333333333     -0.333333333333      0.166666666667
     -0.333333333333      0.333333333333     -0.166666666667
      0.333333333333     -0.166666666667      0.333333333333
     -0.333333333333      0.166666666667     -0.333333333333
      0.166666666667     -0.333333333333      0.333333333333
     -0.166666666667      0.333333333333     -0.333333333333
     -0.500000000000     -0.333333333333     -0.166666666667
      0.166666666667      0.500000000000      0.333333333333
     -0.166666666667     -0.500000000000     -0.333333333333
      0.333333333333      0.166666666667      0.500000000000
     -0.333333333333     -0.166666666667     -0.500000000000
     -0.333333333333      0.500000000000      0.166666666667
      0.333333333333     -0.500000000000     -0.166666666667
     -0.500000000000      0.166666666667      0.333333333333
      0.500000000000     -0.166666666667     -0.333333333333
     -0.166666666667      0.333333333333      0.500000000000
      0.166666666667     -0.333333333333     -0.500000000000
     -0.500000000000     -0.333333333333      0.166666666667
      0.500000000000      0.333333333333     -0.166666666667
     -0.166666666667     -0.500000000000      0.333333333333
      0.166666666667      0.500000000000     -0.333333333333
      0.333333333333     -0.500000000000      0.166666666667
     -0.333333333333      0.500000000000     -0.166666666667
      0.500000000000     -0.166666666667      0.333333333333
     -0.500000000000      0.166666666667     -0.333333333333
      0.333333333333     -0.166666666667     -0.500000000000
     -0.333333333333      0.166666666667      0.500000000000
      0.166666666667      0.333333333333     -0.500000000000
     -0.166666666667     -0.333333333333      0.500000000000
     -0.500000000000     -0.500000000000     -0.166666666667
      0.166666666667      0.500000000000      0.500000000000
     -0.166666666667     -0.500000000000     -0.500000000000
      0.500000000000      0.166666666667      0.500000000000
     -0.500000000000     -0.166666666667     -0.500000000000
     -0.333333333333     -0.333333333333     -0.333333333333
     -0.333333333333      0.333333333333      0.333333333333
      0.333333333333     -0.333333333333     -0.333333333333
     -0.333333333333     -0.333333333333      0.333333333333
      0.333333333333      0.333333333333     -0.333333333333
      0.333333333333     -0.333333333333      0.333333333333
     -0.333333333333      0.333333333333     -0.333333333333
     -0.500000000000     -0.333333333333     -0.333333333333
      0.333333333333      0.500000000000      0.333333333333
     -0.333333333333     -0.500000000000     -0.333333333333
      0.333333333333      0.333333333333      0.500000000000
     -0.333333333333     -0.333333333333     -0.500000000000
     -0.333333333333      0.500000000000      0.333333333333
      0.333333333333     -0.500000000000     -0.333333333333
     -0.333333333333      0.333333333333      0.500000000000
      0.333333333333     -0.333333333333     -0.500000000000
     -0.500000000000     -0.333333333333      0.333333333333
      0.500000000000      0.333333333333     -0.333333333333
     -0.500000000000     -0.500000000000     -0.333333333333
      0.333333333333      0.500000000000      0.500000000000
     -0.333333333333     -0.500000000000     -0.500000000000
      0.500000000000      0.333333333333      0.500000000000
     -0.500000000000     -0.333333333333     -0.500000000000
end kpoints
